
Model name: lp
                x1       x2       x3       x4       x5       x6       x7       x8       x9 
Maximize      -700    -1000     -200     -100        0        0      900     1200     1000 
r_1            0.6        0       -1        0        0        0        0        0        0  =        0
r_2            0.4        0        0        0       -1        0        0        0        0  =        0
r_3              0      0.3        0       -1        0        0        0        0        0  =        0
r_4              0      0.7        0        0        0       -1        0        0        0  =        0
r_5              0        0        1        1        0        0       -1        0        0  =        0
r_6              0        0        0        0       -1        0        0      0.2      0.4  =        0
r_7              0        0        0        0        0       -1        0      0.8      0.6  =        0
Type          Real     Real     Real     Real     Real     Real     Real     Real     Real 
upbo         50000    80000  Infinite Infinite Infinite Infinite Infinite Infinite Infinite
lowbo            0        0        0        0        0        0        0        0        0 

Value of objective function: 1.34e+007

Actual values of the variables:
x1                   35000
x2                   80000
x3                   21000
x4                   24000
x5                   14000
x6                   56000
x7                   45000
x8                   70000
x9                   0

Actual values of the constraints:
r_1                  0
r_2                  0
r_3                  0
r_4                  0
r_5                  0
r_6                  0
r_7                  0

Dual values with from - till limits:
r_1                      -700   -1e+024    21000
r_2                      -700    -14000     6000
r_3                      -800   -1e+024    24000
r_4                     -1325    -24000    56000
r_5                      -900   -1e+024    45000
r_6                       700     -6000    14000
r_7                      1325    -56000    24000
x1                          0   -1e+024   1e+024
x2                     -167.5         0   114286
x3                          0   -1e+024   1e+024
x4                          0   -1e+024   1e+024
x5                          0   -1e+024   1e+024
x6                          0   -1e+024   1e+024
x7                          0   -1e+024   1e+024
x8                          0   -1e+024   1e+024
x9                          0   -1e+024   1e+024
